g3 1 1 0	# problem unknown
 49 15 1 0 15 	# vars, constraints, objectives, general inequalities, equalities  
 0 1 	# nonlinear constraints, objectives
 0 0	# network constraints: nonlinear, linear
 0 37 0 	# nonlinear vars in constraints, objectives, both
 0 0 0 1	# linear network variables; functions; arith, flags
 0 0 0 0 0 	# discrete variables: binary, integer, nonlinear (b,c,o)
 43 37 	# nonzeros in Jacobian, obj. gradient
 0 0	# max name lengths: constraints, variables
 0 0 0 0 0	# common exprs: b,c,o,c1,o1
C0
n0
C1
n0
C2
n0
C3
n0
C4
n0
C5
n0
C6
n0
C7
n0
C8
n0
C9
n0
C10
n0
C11
n0
C12
n0
C13
n0
C14
n0
O0 0
o54
17
o5
o0
v29
o2
n-1
o2
n0.01
o2
v22
v31
n2
o5
o0
v1
o2
n-1
o3
o54
3
v32
o2
n-1
v30
o2
n-1
o2
v2
v13
o5
v13
n2
n2
o5
o54
4
o2
n-2
v0
v30
v32
o3
o2
n0.01
v7
v13
n2
o5
o0
v0
o2
n-1
o3
o2
n0.025
o2
v30
o5
v2
n2
v1
n2
o5
o54
3
v9
o2
n-27.5
v28
o2
n-1.3
o5
v28
n2
n2
o5
o54
3
v10
o2
n-70
v29
o2
n8.6
o5
v29
n2
n2
o5
o0
n-1000
o0
v26
o2
n4.16666666667e-05
o5
v18
n2
n2
o5
o0
o2
n1000
v24
o2
n-1
o2
v16
v21
n2
o5
o54
5
o0
n2
v35
v36
o2
n0.00126582278481
v25
o2
n-1
o3
v19
v3
o2
v6
v24
n2
o5
o54
3
v11
o2
n-1
o3
o2
n1000
v24
o0
n20
v23
o2
n-12
o39
v24
n2
o5
o0
v33
o2
n-1
o2
n1.25
o2
v31
v20
n2
o5
o0
v31
o2
n-1
o3
v16
v17
n2
o5
o0
v27
o2
n-1
o3
o2
n2.4
o2
v34
o2
o39
v34
v8
o39
v14
n2
o5
o0
v30
o2
n-1
o2
n0.785
o2
o5
v4
n2
v24
n2
o5
o0
v32
o2
n-1
o2
n0.785
o2
o5
v5
n2
v24
n2
o5
o0
v2
o2
n-1
o3
o2
n2.0
o0
v35
o2
n-1
o2
v1
o5
v13
n3
o2
o5
v13
n2
o0
n3
o2
n-1
o2
v30
v13
n2
o5
o0
v12
o2
n-1
o2
n1.15
o2
v34
o2
o0
n15
o2
n0.15
v34
o0
n8
o5
o3
o2
n0.02
o2
v15
v14
o2
v31
v8
n1.5
n2
x49
0 0.0
1 -0.14809
2 0.7598
3 100.0
4 0.0
5 0.0
6 0.0
7 0.0
8 4.9367
9 114.7
10 500.0
11 190.85
12 5000.0
13 5.1306
14 1.5
15 12589.0
16 28394.0
17 1000.0
18 14197.0
19 500.0
20 1.0
21 0.2
22 10.0
23 15.0
24 5.6788
25 3140.5
26 2325.6
27 814.9
28 3.5688
29 4.0696
30 0.0
31 27.452
32 0.0
33 34.315
34 19.217
35 10.0
36 0.0
37 120.0
38 1760.5
39 35.0
40 100.0
41 200.0
42 700.0
43 1945.0
44 1.5
45 1.0
46 1.0
47 1.0
48 88.025
r
4 0.0 
4 0.0 
4 0 
4 0 
4 0 
4 0 
4 0 
4 0.0 
4 0 
4 0.0 
4 0 
4 0 
4 400 
4 380.0 
4 -290 
b
0 0 10
0 -0.2 -0.001
0 0.1 2
0 100 400
0 0 1
0 0 2
0 0 10
0 0 5
0 2 20
0 100 1000
0 500 5000
0 10 5000
0 500 5000
0 0.01 20
0 1.5 8
0 3000 30000
0 5000 50000
0 100 1000
0 2000 20000
0 500 10000
0 1 2
0 0.2 0.8
0 0 10
0 4 15
0 2 30
0 750 15000
0 1000 20000
0 250 5000
0 2 20
0 2 30
0 0 1
0 10 150
0 0 2
0 30 500
0 7 120
0 10 50
0 0 20
0 120 240
0 500 5000
0 35 70
0 100 3000
0 200 400
0 700 1900
0 250 3000
0 0 10
0 1 2
0 1 2
0 1 5
0 20 200
k48
0
0
0
0
0
0
0
0
0
0
0
0
0
0
1
2
3
3
6
7
9
9
9
9
9
10
13
14
16
17
17
19
19
20
22
22
22
24
25
27
29
31
33
35
36
38
40
41
J0 2
28 1.0
31 -0.13
J1 2
31 -0.7
34 1.0
J2 2
44 -1.0
14 1.0
J3 5
28 -2.0
48 1.0
29 -2.0
33 -1.0
34 -2.0
J4 2
38 1.0
48 -20.0
J5 2
16 1.0
18 -2.0
J6 3
25 1.0
26 -1.0
27 -1.0
J7 2
43 1.0
18 -0.137
J8 2
39 1.0
20 -35.0
J9 2
40 1.0
26 -0.043
J10 2
41 1.0
46 -200.0
J11 2
37 1.0
45 -120.0
J12 2
42 1.0
47 -300.0
J13 6
15 1.0
18 -1.0
45 70.0
20 660.0
46 95.0
26 0.5
J14 7
37 1.0
39 1.0
40 1.0
41 1.0
42 1.0
43 -1.0
19 1.0
G0 37
0 0
1 0
2 0
3 0
4 0
5 0
6 0
7 0
8 0
9 0
10 0
11 0
12 0
13 0
14 0
15 0
16 0
17 0
18 0
19 0
20 0
21 0
22 0
23 0
24 0
25 0
26 0
27 0
28 0
29 0
30 0
31 0
32 0
33 0
34 0
35 0
36 0
